p cnf 291 839
a 280 281 282 283 284 285 286 287 288 289 290 0
e 1 2 3 4 5 6 7 8 9 10 11 12 13 14 15 16 17 18 19 20 21 22 23 24 25 26 27 28 29 30 31 32 33 34 35 36 37 38 39 40 41 42 43 44 45 46 47 48 49 50 51 52 53 54 55 56 57 58 59 60 61 62 63 64 65 66 67 68 69 70 71 72 73 74 75 76 77 78 79 80 81 82 83 84 85 86 87 88 89 90 91 92 93 94 95 96 97 98 99 100 101 102 103 104 105 106 107 108 109 110 111 112 113 114 115 116 117 118 119 120 121 122 123 124 125 126 127 128 129 130 131 132 133 134 135 136 137 138 139 140 141 142 143 144 145 146 147 148 149 150 151 152 153 154 155 156 157 158 159 160 161 162 163 164 165 166 167 168 169 170 171 172 173 174 175 176 177 178 179 180 181 182 183 184 185 186 187 188 189 190 191 192 193 194 195 196 197 198 199 200 201 202 203 204 205 206 207 208 209 210 211 212 213 214 215 216 217 218 219 220 221 222 223 224 225 226 227 228 229 230 231 232 233 234 235 236 237 238 239 240 241 242 243 244 245 246 247 248 249 250 251 252 253 254 255 256 257 258 259 260 261 262 263 264 265 266 267 268 269 270 271 272 273 274 275 276 277 278 279 291 0
289 290 1 0
-289 -1 0
-290 -1 0
-284 285 2 0
284 -2 0
-285 -2 0
284 -285 3 0
-284 -3 0
285 -3 0
2 3 4 0
-2 -4 0
-3 -4 0
-1 4 5 0
1 -5 0
-4 -5 0
-288 -5 6 0
288 -6 0
5 -6 0
-286 -287 7 0
286 -7 0
287 -7 0
286 287 8 0
-286 -8 0
-287 -8 0
7 8 9 0
-7 -9 0
-8 -9 0
-290 -9 10 0
290 -10 0
9 -10 0
6 10 11 0
-6 -11 0
-10 -11 0
-285 -286 12 0
285 -12 0
286 -12 0
290 -12 13 0
-290 -13 0
12 -13 0
-289 13 14 0
289 -14 0
-13 -14 0
-286 -288 15 0
286 -15 0
288 -15 0
285 286 16 0
-285 -16 0
-286 -16 0
290 16 17 0
-290 -17 0
-16 -17 0
15 17 18 0
-15 -18 0
-17 -18 0
-14 18 19 0
14 -19 0
-18 -19 0
-11 19 20 0
11 -20 0
-19 -20 0
281 282 21 0
-281 -21 0
-282 -21 0
-281 -282 22 0
281 -22 0
282 -22 0
21 22 23 0
-21 -23 0
-22 -23 0
-285 23 24 0
285 -24 0
-23 -24 0
-281 -284 25 0
281 -25 0
284 -25 0
280 -25 26 0
-280 -26 0
25 -26 0
-280 25 27 0
280 -27 0
-25 -27 0
26 27 28 0
-26 -28 0
-27 -28 0
285 -28 29 0
-285 -29 0
28 -29 0
24 29 30 0
-24 -30 0
-29 -30 0
-8 -30 31 0
8 -31 0
30 -31 0
-282 287 32 0
282 -32 0
-287 -32 0
-284 -287 33 0
284 -33 0
287 -33 0
32 33 34 0
-32 -34 0
-33 -34 0
-283 34 35 0
283 -35 0
-34 -35 0
283 -34 36 0
-283 -36 0
34 -36 0
8 36 37 0
-8 -37 0
-36 -37 0
35 -37 38 0
-35 -38 0
37 -38 0
31 38 39 0
-31 -39 0
-38 -39 0
288 -1 40 0
-288 -40 0
1 -40 0
39 -40 41 0
-39 -41 0
40 -41 0
-20 41 42 0
20 -42 0
-41 -42 0
-288 7 43 0
288 -43 0
-7 -43 0
-290 43 44 0
290 -44 0
-43 -44 0
-288 289 45 0
288 -45 0
-289 -45 0
-7 45 46 0
7 -46 0
-45 -46 0
-44 46 47 0
44 -47 0
-46 -47 0
287 12 48 0
-287 -48 0
-12 -48 0
-285 -7 49 0
285 -49 0
7 -49 0
48 49 50 0
-48 -50 0
-49 -50 0
-289 -50 51 0
289 -51 0
50 -51 0
-284 -285 52 0
284 -52 0
285 -52 0
286 52 53 0
-286 -53 0
-52 -53 0
-284 -12 54 0
284 -54 0
12 -54 0
-45 54 55 0
45 -55 0
-54 -55 0
53 -55 56 0
-53 -56 0
55 -56 0
51 56 57 0
-51 -57 0
-56 -57 0
290 -57 58 0
-290 -58 0
57 -58 0
47 58 59 0
-47 -59 0
-58 -59 0
-283 -52 60 0
283 -60 0
52 -60 0
-287 60 61 0
287 -61 0
-60 -61 0
-283 -284 62 0
283 -62 0
284 -62 0
285 62 63 0
-285 -63 0
-62 -63 0
-61 63 64 0
61 -64 0
-63 -64 0
-282 -62 65 0
282 -65 0
62 -65 0
287 65 66 0
-287 -66 0
-65 -66 0
-286 -66 67 0
286 -67 0
66 -67 0
-282 -283 68 0
282 -68 0
283 -68 0
284 68 69 0
-284 -69 0
-68 -69 0
-67 69 70 0
67 -70 0
-69 -70 0
64 70 71 0
-64 -71 0
-70 -71 0
-282 283 72 0
282 -72 0
-283 -72 0
-281 -72 73 0
281 -73 0
72 -73 0
-283 22 74 0
283 -74 0
-22 -74 0
73 74 75 0
-73 -75 0
-74 -75 0
-285 -75 76 0
285 -76 0
75 -76 0
-8 76 77 0
8 -77 0
-76 -77 0
-280 282 78 0
280 -78 0
-282 -78 0
-284 78 79 0
284 -79 0
-78 -79 0
-281 79 80 0
281 -80 0
-79 -80 0
-280 -281 81 0
280 -81 0
281 -81 0
-284 81 82 0
284 -82 0
-81 -82 0
-282 -82 83 0
282 -83 0
82 -83 0
80 83 84 0
-80 -84 0
-83 -84 0
285 -84 85 0
-285 -85 0
84 -85 0
-77 85 86 0
77 -86 0
-85 -86 0
-71 86 87 0
71 -87 0
-86 -87 0
-40 87 88 0
40 -88 0
-87 -88 0
59 88 89 0
-59 -89 0
-88 -89 0
-287 -288 90 0
287 -90 0
288 -90 0
-286 -90 91 0
286 -91 0
90 -91 0
289 91 92 0
-289 -92 0
-91 -92 0
-290 92 93 0
290 -93 0
-92 -93 0
-285 -91 94 0
285 -94 0
91 -94 0
-289 94 95 0
289 -95 0
-94 -95 0
288 49 96 0
-288 -96 0
-49 -96 0
-95 96 97 0
95 -97 0
-96 -97 0
93 97 98 0
-93 -98 0
-97 -98 0
-288 54 99 0
288 -99 0
-54 -99 0
287 -99 100 0
-287 -100 0
99 -100 0
-1 100 101 0
1 -101 0
-100 -101 0
288 60 102 0
-288 -102 0
-60 -102 0
286 -102 103 0
-286 -103 0
102 -103 0
283 288 104 0
-283 -104 0
-288 -104 0
-54 104 105 0
54 -105 0
-104 -105 0
103 105 106 0
-103 -106 0
-105 -106 0
-287 106 107 0
287 -107 0
-106 -107 0
-101 107 108 0
101 -108 0
-107 -108 0
-16 82 109 0
16 -109 0
-82 -109 0
-282 -109 110 0
282 -110 0
109 -110 0
52 110 111 0
-52 -111 0
-110 -111 0
283 111 112 0
-283 -112 0
-111 -112 0
-284 286 113 0
284 -113 0
-286 -113 0
-283 -113 114 0
283 -114 0
113 -114 0
12 114 115 0
-12 -115 0
-114 -115 0
286 81 116 0
-286 -116 0
-81 -116 0
285 -116 117 0
-285 -117 0
116 -117 0
-284 -117 118 0
284 -118 0
117 -118 0
-282 118 119 0
282 -119 0
-118 -119 0
115 119 120 0
-115 -120 0
-119 -120 0
287 288 121 0
-287 -121 0
-288 -121 0
-281 286 122 0
281 -122 0
-286 -122 0
-285 122 123 0
285 -123 0
-122 -123 0
284 -286 124 0
-284 -124 0
286 -124 0
113 124 125 0
-113 -125 0
-124 -125 0
-123 125 126 0
123 -126 0
-125 -126 0
-121 126 127 0
121 -127 0
-126 -127 0
284 -16 128 0
-284 -128 0
16 -128 0
-283 113 129 0
283 -129 0
-113 -129 0
2 122 130 0
-2 -130 0
-122 -130 0
-129 130 131 0
129 -131 0
-130 -131 0
128 131 132 0
-128 -132 0
-131 -132 0
-16 -82 133 0
16 -133 0
82 -133 0
-282 133 134 0
282 -134 0
-133 -134 0
132 -134 135 0
-132 -135 0
134 -135 0
-127 135 136 0
127 -136 0
-135 -136 0
120 -136 137 0
-120 -137 0
136 -137 0
112 -137 138 0
-112 -138 0
137 -138 0
-108 138 139 0
108 -139 0
-138 -139 0
-98 139 140 0
98 -140 0
-139 -140 0
283 -1 141 0
-283 -141 0
1 -141 0
282 -52 142 0
-282 -142 0
52 -142 0
-91 -142 143 0
91 -143 0
142 -143 0
-121 -128 144 0
121 -144 0
128 -144 0
143 144 145 0
-143 -145 0
-144 -145 0
-141 145 146 0
141 -146 0
-145 -146 0
287 289 147 0
-287 -147 0
-289 -147 0
-286 -147 148 0
286 -148 0
147 -148 0
95 148 149 0
-95 -149 0
-148 -149 0
45 -149 150 0
-45 -150 0
149 -150 0
-282 -90 151 0
282 -151 0
90 -151 0
285 -121 152 0
-285 -152 0
121 -152 0
151 152 153 0
-151 -153 0
-152 -153 0
-282 288 154 0
282 -154 0
-288 -154 0
287 154 155 0
-287 -155 0
-154 -155 0
-283 155 156 0
283 -156 0
-155 -156 0
-153 156 157 0
153 -157 0
-156 -157 0
281 -285 158 0
-281 -158 0
285 -158 0
287 158 159 0
-287 -159 0
-158 -159 0
286 159 160 0
-286 -160 0
-159 -160 0
-284 160 161 0
284 -161 0
-160 -161 0
-281 -68 162 0
281 -162 0
68 -162 0
-280 -162 163 0
280 -163 0
162 -163 0
286 163 164 0
-286 -164 0
-163 -164 0
285 164 165 0
-285 -165 0
-164 -165 0
-161 165 166 0
161 -166 0
-165 -166 0
157 -166 167 0
-157 -167 0
166 -167 0
150 167 168 0
-150 -168 0
-167 -168 0
289 -168 169 0
-289 -169 0
168 -169 0
160 165 170 0
-160 -170 0
-165 -170 0
-284 -170 171 0
284 -171 0
170 -171 0
157 -171 172 0
-157 -172 0
171 -172 0
289 172 173 0
-289 -173 0
-172 -173 0
-150 173 174 0
150 -174 0
-173 -174 0
169 174 175 0
-169 -175 0
-174 -175 0
290 -175 176 0
-290 -176 0
175 -176 0
-283 -54 177 0
283 -177 0
54 -177 0
-154 -177 178 0
154 -178 0
177 -178 0
-283 16 179 0
283 -179 0
-16 -179 0
282 179 180 0
-282 -180 0
-179 -180 0
-284 180 181 0
284 -181 0
-180 -181 0
288 16 182 0
-288 -182 0
-16 -182 0
181 182 183 0
-181 -183 0
-182 -183 0
178 183 184 0
-178 -184 0
-183 -184 0
-281 -283 185 0
281 -185 0
283 -185 0
-280 -185 186 0
280 -186 0
185 -186 0
286 186 187 0
-286 -187 0
-186 -187 0
285 -187 188 0
-285 -188 0
187 -188 0
-121 188 189 0
121 -189 0
-188 -189 0
94 189 190 0
-94 -190 0
-189 -190 0
-184 190 191 0
184 -191 0
-190 -191 0
-1 191 192 0
1 -192 0
-191 -192 0
-12 -62 193 0
12 -193 0
62 -193 0
-282 -193 194 0
282 -194 0
193 -194 0
-121 194 195 0
121 -195 0
-194 -195 0
-1 -195 196 0
1 -196 0
195 -196 0
-280 -42 197 0
280 -197 0
42 -197 0
280 42 198 0
-280 -198 0
-42 -198 0
197 198 199 0
-197 -199 0
-198 -199 0
89 197 200 0
-89 -200 0
-197 -200 0
-89 -197 201 0
89 -201 0
197 -201 0
200 201 202 0
-200 -202 0
-201 -202 0
-280 -202 203 0
280 -203 0
202 -203 0
280 202 204 0
-280 -204 0
-202 -204 0
203 204 205 0
-203 -205 0
-204 -205 0
-280 -89 206 0
280 -206 0
89 -206 0
280 89 207 0
-280 -207 0
-89 -207 0
-197 207 208 0
197 -208 0
-207 -208 0
197 -206 209 0
-197 -209 0
206 -209 0
208 209 210 0
-208 -210 0
-209 -210 0
140 -210 211 0
-140 -211 0
210 -211 0
-140 210 212 0
140 -212 0
-210 -212 0
211 212 213 0
-211 -213 0
-212 -213 0
140 -213 214 0
-140 -214 0
213 -214 0
-140 213 215 0
140 -215 0
-213 -215 0
214 215 216 0
-214 -216 0
-215 -216 0
146 -210 217 0
-146 -217 0
210 -217 0
-146 210 218 0
146 -218 0
-210 -218 0
217 218 219 0
-217 -219 0
-218 -219 0
146 -219 220 0
-146 -220 0
219 -220 0
-146 219 221 0
146 -221 0
-219 -221 0
220 221 222 0
-220 -222 0
-221 -222 0
176 -210 223 0
-176 -223 0
210 -223 0
-176 210 224 0
176 -224 0
-210 -224 0
223 224 225 0
-223 -225 0
-224 -225 0
176 -225 226 0
-176 -226 0
225 -226 0
-176 225 227 0
176 -227 0
-225 -227 0
226 227 228 0
-226 -228 0
-227 -228 0
192 -210 229 0
-192 -229 0
210 -229 0
-192 210 230 0
192 -230 0
-210 -230 0
229 230 231 0
-229 -231 0
-230 -231 0
192 -231 232 0
-192 -232 0
231 -232 0
-192 231 233 0
192 -233 0
-231 -233 0
232 233 234 0
-232 -234 0
-233 -234 0
196 -210 235 0
-196 -235 0
210 -235 0
-196 210 236 0
196 -236 0
-210 -236 0
235 236 237 0
-235 -237 0
-236 -237 0
196 -237 238 0
-196 -238 0
237 -238 0
-196 237 239 0
196 -239 0
-237 -239 0
238 239 240 0
-238 -240 0
-239 -240 0
-199 -205 241 0
199 -241 0
205 -241 0
-216 241 242 0
216 -242 0
-241 -242 0
216 -241 243 0
-216 -243 0
241 -243 0
242 243 244 0
-242 -244 0
-243 -244 0
-216 -241 245 0
216 -245 0
241 -245 0
-222 245 246 0
222 -246 0
-245 -246 0
222 -245 247 0
-222 -247 0
245 -247 0
246 247 248 0
-246 -248 0
-247 -248 0
-222 -245 249 0
222 -249 0
245 -249 0
-228 249 250 0
228 -250 0
-249 -250 0
228 -249 251 0
-228 -251 0
249 -251 0
250 251 252 0
-250 -252 0
-251 -252 0
-228 -249 253 0
228 -253 0
249 -253 0
-234 253 254 0
234 -254 0
-253 -254 0
234 -253 255 0
-234 -255 0
253 -255 0
254 255 256 0
-254 -256 0
-255 -256 0
-234 -253 257 0
234 -257 0
253 -257 0
-240 257 258 0
240 -258 0
-257 -258 0
240 -257 259 0
-240 -259 0
257 -259 0
258 259 260 0
-258 -260 0
-259 -260 0
-210 216 261 0
210 -261 0
-216 -261 0
210 244 262 0
-210 -262 0
-244 -262 0
261 262 263 0
-261 -263 0
-262 -263 0
-210 222 264 0
210 -264 0
-222 -264 0
210 248 265 0
-210 -265 0
-248 -265 0
264 265 266 0
-264 -266 0
-265 -266 0
-210 228 267 0
210 -267 0
-228 -267 0
210 252 268 0
-210 -268 0
-252 -268 0
267 268 269 0
-267 -269 0
-268 -269 0
-210 234 270 0
210 -270 0
-234 -270 0
210 256 271 0
-210 -271 0
-256 -271 0
270 271 272 0
-270 -272 0
-271 -272 0
-210 240 273 0
210 -273 0
-240 -273 0
210 260 274 0
-210 -274 0
-260 -274 0
273 274 275 0
-273 -275 0
-274 -275 0
-263 -266 276 0
263 -276 0
266 -276 0
-269 -276 277 0
269 -277 0
276 -277 0
-272 -277 278 0
272 -278 0
277 -278 0
-275 -278 279 0
275 -279 0
278 -279 0
291 0
279 0
